TCS_Benchmarks/redos_fix/snort3_output_distinct_258_257_16_0.smt2
(set-logic QF_S)
(declare-const x String)
(assert (str.in.re x (re.inter (re.* (re.comp (re.union (re.range "\u{09}" "\u{0d}") (re.range "\u{20}" "\u{20}") (re.range "\u{85}" "\u{85}") (re.range "\u{a0}" "\u{a0}"))) )  (re.++ (re.* (re.comp (re.union (re.range "\u{09}" "\u{0d}") (re.range "\u{20}" "\u{20}") (re.range "\u{85}" "\u{85}") (re.range "\u{a0}" "\u{a0}"))) ) (re.++  (re.++  (str.to.re "\u{2e}") (re.++  (re.union  (re.++  (re.union  (str.to.re "\u{64}")  (str.to.re "\u{44}")) (re.++  (re.union  (str.to.re "\u{61}")  (str.to.re "\u{41}"))  (re.union  (str.to.re "\u{74}")  (str.to.re "\u{54}"))))  (re.++  (re.union  (str.to.re "\u{78}")  (str.to.re "\u{58}")) (re.++  (re.union  (str.to.re "\u{6d}")  (str.to.re "\u{4d}"))  (re.union  (str.to.re "\u{6c}")  (str.to.re "\u{4c}"))))) (re.++  (str.to.re "\u{3f}") (re.++ (re.* (re.comp (re.union (re.range "\u{09}" "\u{0d}") (re.range "\u{20}" "\u{20}") (re.range "\u{85}" "\u{85}") (re.range "\u{a0}" "\u{a0}"))) ) (re.++  (re.union  (str.to.re "\u{76}")  (str.to.re "\u{56}")) (re.++  (str.to.re "\u{3d}") (re.++ (re.* (re.comp (re.union (re.range "\u{09}" "\u{0d}") (re.range "\u{20}" "\u{20}") (re.range "\u{85}" "\u{85}") (re.range "\u{a0}" "\u{a0}"))) ) (re.++  (re.union  (str.to.re "\u{74}")  (str.to.re "\u{54}"))  (str.to.re "\u{3d}"))))))))) (re.* (re.comp (re.union (re.range "\u{09}" "\u{0d}") (re.range "\u{20}" "\u{20}") (re.range "\u{85}" "\u{85}") (re.range "\u{a0}" "\u{a0}"))) ))) (re.* (re.comp (re.union (re.range "\u{09}" "\u{0d}") (re.range "\u{20}" "\u{20}") (re.range "\u{85}" "\u{85}") (re.range "\u{a0}" "\u{a0}"))) ) )))
(check-sat)
(get-model)