TCS_Benchmarks/redos_fix/snort3_output_distinct_258_257_16_0.txt
[^\s]*
([^\s]*)(\.([dD][aA][tT]|[xX][mM][lL])\?[^\s]*[vV]=[^\s]*[tT]=)([^\s]*)
[^\s]*